150 10
1
46 25 64 49 69 38 85 90 37 6 90 89 37 5 29 67 66 56 47 93 9 9 35 73 18 70 26 70 38 47 49 60 6 89 85 30 86 86 1 45 45 75 58 16 80 25 80 21 97 65 16 26 78 96 94 69 63 56 54 12 59 67 87 69 8 30 80 89 62 1 1 9 33 90 37 96 65 72 84 31 40 72 34 16 66 15 89 86 13 31 65 62 15 39 67 85 79 9 99 45 92 32 94 17 55 52 36 53 1 12 41 64 62 27 63 38 73 87 80 74 49 15 4 48 82 39 95 65 43 26 72 69 16 90 57 51 90 95 38 38 83 3 83 98 57 26 72 4 19 49
493 553 655 672 688 690 661 634 700 825
28 0 0 0 0 0 0 0 0 0 0 0 0 0 0 0 0 0 0 2 0 0 0 0 49 2 0 0 0 0 0 0 0 0 0 0 3 0 0 0 45 0 0 0 0 0 21 0 10 0 41 12 0 0 97 0 10 0 0 0 0 1 0 0 0 0 0 0 56 0 0 0 16 0 0 0 0 0 0 0 0 0 0 0 0 0 0 56 0 0 0 0 10 0 0 0 0 0 0 0 0 0 0 0 0 48 0 0 96 0 0 0 0 0 0 28 0 0 0 0 0 0 0 0 0 0 0 76 0 0 0 0 36 0 0 0 0 0 0 74 0 0 0 0 21 0 0 0 0 0
0 0 0 0 0 84 0 0 0 0 0 0 88 0 0 46 0 16 0 0 0 0 0 0 0 0 0 0 0 87 0 0 0 0 0 0 0 0 0 0 0 0 64 0 0 0 0 0 0 0 0 0 0 34 0 0 0 0 0 68 0 0 0 0 0 0 0 0 0 55 0 77 0 0 0 0 0 0 0 0 0 0 40 0 0 0 0 0 0 0 0 0 0 0 0 86 0 0 0 0 0 0 0 15 0 0 0 0 0 0 0 0 0 0 0 0 0 0 0 0 0 0 0 0 1 15 0 0 0 0 0 0 0 0 0 0 0 0 0 21 6 74 0 7 0 0 0 0 74 0
0 0 0 0 0 4 0 0 0 0 0 0 0 0 0 0 0 0 17 0 0 0 0 0 0 0 0 0 0 0 0 0 0 0 0 0 0 0 0 0 0 18 46 0 0 0 0 0 0 0 0 0 0 80 0 64 10 0 0 0 84 0 0 0 0 0 0 0 0 0 0 0 0 0 90 0 0 0 0 0 0 0 0 0 49 0 0 0 0 0 0 24 0 0 0 0 0 32 0 15 39 80 0 0 0 0 0 0 16 0 70 0 0 0 65 0 0 0 0 0 0 0 0 46 55 0 0 0 86 0 0 0 0 0 94 0 0 0 0 0 0 0 0 0 71 0 0 9 0 0
0 0 83 0 0 0 0 0 0 0 0 0 0 0 53 0 0 0 53 0 0 0 0 0 93 0 0 0 0 0 0 0 0 0 92 0 0 9 0 16 0 0 0 0 82 87 0 0 0 0 0 0 0 21 15 30 0 0 0 0 0 0 0 0 0 47 0 0 0 0 0 52 0 0 0 0 0 0 0 0 0 0 68 0 61 0 0 0 0 0 0 8 0 78 0 0 0 0 0 0 0 0 0 0 28 73 0 6 7 0 0 0 0 0 0 0 0 0 0 0 0 0 0 0 0 0 0 0 0 0 18 0 0 83 0 0 0 0 0 23 0 0 0 0 0 0 0 0 0 0
0 0 0 0 0 0 0 0 0 0 0 0 0 0 0 0 0 61 0 0 0 0 0 0 0 0 18 0 98 0 0 0 0 0 0 0 0 0 0 0 0 0 0 0 0 31 0 0 0 74 0 55 0 0 0 0 39 0 0 0 0 0 0 0 0 0 0 0 0 0 0 0 0 0 0 13 27 0 0 0 0 0 0 0 66 0 0 0 0 18 0 0 0 0 0 69 0 0 0 0 75 0 11 91 0 73 0 0 0 0 0 0 0 0 0 0 0 0 0 0 0 73 0 0 0 0 84 0 0 0 0 0 0 0 0 0 0 0 0 54 0 0 0 0 0 0 0 50 56 59
0 0 0 0 0 0 0 0 0 18 0 0 0 0 88 0 99 0 1 0 0 0 0 0 0 81 0 0 0 0 0 0 0 8 0 0 0 0 0 0 0 68 0 0 0 0 0 0 78 0 26 0 0 0 0 0 96 0 0 0 0 0 0 0 0 0 0 0 0 0 0 0 0 0 19 0 0 0 4 26 0 0 0 17 99 0 39 0 0 0 0 39 0 48 0 0 0 0 0 0 0 0 0 0 0 0 69 0 0 0 3 0 0 49 0 53 0 0 26 0 48 0 0 0 0 0 0 0 0 0 2 0 0 0 0 14 0 47 0 37 0 0 0 0 0 0 0 0 0 0
0 0 0 0 0 41 0 0 90 0 0 1 0 0 0 62 0 0 0 0 0 0 0 0 0 0 0 0 0 13 0 0 0 0 0 0 0 0 0 2 0 0 0 0 0 33 87 0 0 0 0 0 0 0 0 0 0 0 93 0 0 0 2 0 0 0 0 0 1 0 71 0 0 0 36 0 0 0 0 0 0 0 0 0 0 0 0 36 0 0 0 0 0 0 49 0 0 0 0 0 0 0 62 0 84 55 0 0 0 0 0 0 0 0 9 95 0 0 0 0 21 0 0 0 21 0 0 79 0 0 0 0 0 0 16 0 0 89 0 0 0 0 0 0 0 0 0 0 0 0
0 0 98 1 0 0 0 0 0 0 7 0 0 0 0 0 0 0 94 0 74 0 0 0 0 0 0 0 0 18 0 0 78 0 0 0 0 0 0 0 0 0 0 0 0 0 0 0 0 0 0 0 0 0 0 0 0 0 59 0 29 0 0 0 88 0 0 0 0 0 0 0 0 0 0 0 0 0 0 33 1 0 0 0 0 0 0 0 0 0 0 0 36 0 98 0 0 32 0 0 0 0 0 0 0 0 0 0 0 98 0 0 0 0 0 0 0 0 0 0 0 0 0 0 23 96 0 0 0 0 0 0 0 37 0 0 0 0 0 22 0 0 67 0 0 0 0 0 0 0
0 0 0 0 0 0 0 0 0 0 0 0 0 0 88 0 0 0 0 83 0 0 0 0 0 0 0 0 0 0 12 0 0 0 0 0 0 0 97 0 0 0 0 0 36 0 0 76 53 56 0 0 0 0 87 0 0 0 0 0 0 0 0 6 84 0 0 0 19 0 0 0 0 0 74 0 0 0 0 0 47 15 0 0 0 0 0 0 0 0 0 0 0 43 0 0 0 0 0 0 0 0 0 0 0 0 3 47 0 0 0 0 0 66 0 0 0 0 0 0 0 0 5 0 0 27 0 0 6 0 97 64 0 0 0 0 0 0 0 0 0 40 0 25 0 0 0 0 0 0
33 0 0 0 0 0 0 0 0 0 29 65 0 0 81 0 0 0 0 96 0 0 0 0 0 92 0 0 0 0 0 0 0 0 0 0 0 0 0 0 0 0 0 48 0 0 0 0 0 96 0 45 6 0 0 0 10 71 72 0 0 0 0 52 0 0 0 0 81 0 28 0 39 0 46 0 0 0 0 0 0 0 0 0 0 0 0 0 0 0 0 0 0 0 0 44 68 0 0 0 0 0 50 0 0 0 0 0 0 0 0 0 0 0 65 0 0 0 0 0 0 0 0 0 0 0 0 0 0 0 0 0 0 56 0 35 0 0 0 90 0 0 0 0 0 9 76 0 0 0
21 0 0 0 0 0 0 0 0 0 0 0 0 0 0 0 0 0 0 1 0 0 0 0 34 1 0 0 0 0 0 0 0 0 0 0 0 0 0 0 7 0 0 0 0 0 14 0 0 0 5 7 0 0 96 0 7 0 0 0 0 0 0 0 0 0 0 0 24 0 0 0 12 0 0 0 0 0 0 0 0 0 0 0 0 0 0 9 0 0 0 0 0 0 0 0 0 0 0 0 0 0 0 0 0 41 0 0 71 0 0 0 0 0 0 4 0 0 0 0 0 0 0 0 0 0 0 34 0 0 0 0 23 0 0 0 0 0 0 44 0 0 0 0 2 0 0 0 0 0
0 0 0 0 0 3 0 0 0 0 0 0 14 0 0 43 0 9 0 0 0 0 0 0 0 0 0 0 0 67 0 0 0 0 0 0 0 0 0 0 0 0 27 0 0 0 0 0 0 0 0 0 0 27 0 0 0 0 0 33 0 0 0 0 0 0 0 0 0 41 0 34 0 0 0 0 0 0 0 0 0 0 26 0 0 0 0 0 0 0 0 0 0 0 0 25 0 0 0 0 0 0 0 8 0 0 0 0 0 0 0 0 0 0 0 0 0 0 0 0 0 0 0 0 0 12 0 0 0 0 0 0 0 0 0 0 0 0 0 4 2 71 0 5 0 0 0 0 62 0
0 0 0 0 0 3 0 0 0 0 0 0 0 0 0 0 0 0 7 0 0 0 0 0 0 0 0 0 0 0 0 0 0 0 0 0 0 0 0 0 0 1 36 0 0 0 0 0 0 0 0 0 0 52 0 52 4 0 0 0 51 0 0 0 0 0 0 0 0 0 0 0 0 0 12 0 0 0 0 0 0 0 0 0 15 0 0 0 0 0 0 0 0 0 0 0 0 30 0 0 19 22 0 0 0 0 0 0 7 0 12 0 0 0 36 0 0 0 0 0 0 0 0 25 5 0 0 0 68 0 0 0 0 0 11 0 0 0 0 0 0 0 0 0 58 0 0 3 0 0
0 0 33 0 0 0 0 0 0 0 0 0 0 0 28 0 0 0 12 0 0 0 0 0 68 0 0 0 0 0 0 0 0 0 86 0 0 2 0 6 0 0 0 0 44 66 0 0 0 0 0 0 0 5 12 16 0 0 0 0 0 0 0 0 0 15 0 0 0 0 0 27 0 0 0 0 0 0 0 0 0 0 21 0 14 0 0 0 0 0 0 7 0 39 0 0 0 0 0 0 0 0 0 0 0 13 0 1 3 0 0 0 0 0 0 0 0 0 0 0 0 0 0 0 0 0 0 0 0 0 10 0 0 34 0 0 0 0 0 11 0 0 0 0 0 0 0 0 0 0
0 0 0 0 0 0 0 0 0 0 0 0 0 0 0 0 0 5 0 0 0 0 0 0 0 0 7 0 96 0 0 0 0 0 0 0 0 0 0 0 0 0 0 0 0 16 0 0 0 45 0 3 0 0 0 0 33 0 0 0 0 0 0 0 0 0 0 0 0 0 0 0 0 0 0 5 14 0 0 0 0 0 0 0 37 0 0 0 0 13 0 0 0 0 0 39 0 0 0 0 33 0 2 29 0 26 0 0 0 0 0 0 0 0 0 0 0 0 0 0 0 13 0 0 0 0 81 0 0 0 0 0 0 0 0 0 0 0 0 46 0 0 0 0 0 0 0 45 30 51
0 0 0 0 0 0 0 0 0 15 0 0 0 0 67 0 41 0 0 0 0 0 0 0 0 73 0 0 0 0 0 0 0 2 0 0 0 0 0 0 0 40 0 0 0 0 0 0 58 0 20 0 0 0 0 0 65 0 0 0 0 0 0 0 0 0 0 0 0 0 0 0 0 0 14 0 0 0 2 23 0 0 0 0 51 0 19 0 0 0 0 33 0 18 0 0 0 0 0 0 0 0 0 0 0 0 50 0 0 0 2 0 0 13 0 43 0 0 3 0 9 0 0 0 0 0 0 0 0 0 0 0 0 0 0 10 0 0 0 32 0 0 0 0 0 0 0 0 0 0
0 0 0 0 0 23 0 0 24 0 0 0 0 0 0 56 0 0 0 0 0 0 0 0 0 0 0 0 0 3 0 0 0 0 0 0 0 0 0 0 0 0 0 0 0 10 62 0 0 0 0 0 0 0 0 0 0 0 86 0 0 0 0 0 0 0 0 0 0 0 10 0 0 0 27 0 0 0 0 0 0 0 0 0 0 0 0 26 0 0 0 0 0 0 25 0 0 0 0 0 0 0 42 0 18 35 0 0 0 0 0 0 0 0 6 55 0 0 0 0 13 0 0 0 8 0 0 41 0 0 0 0 0 0 6 0 0 66 0 0 0 0 0 0 0 0 0 0 0 0
0 0 28 0 0 0 0 0 0 0 0 0 0 0 0 0 0 0 11 0 64 0 0 0 0 0 0 0 0 13 0 0 67 0 0 0 0 0 0 0 0 0 0 0 0 0 0 0 0 0 0 0 0 0 0 0 0 0 43 0 3 0 0 0 66 0 0 0 0 0 0 0 0 0 0 0 0 0 0 2 0 0 0 0 0 0 0 0 0 0 0 0 2 0 17 0 0 7 0 0 0 0 0 0 0 0 0 0 0 57 0 0 0 0 0 0 0 0 0 0 0 0 0 0 21 87 0 0 0 0 0 0 0 29 0 0 0 0 0 0 0 0 65 0 0 0 0 0 0 0
0 0 0 0 0 0 0 0 0 0 0 0 0 0 54 0 0 0 0 18 0 0 0 0 0 0 0 0 0 0 8 0 0 0 0 0 0 0 23 0 0 0 0 0 5 0 0 10 38 54 0 0 0 0 4 0 0 0 0 0 0 0 0 2 27 0 0 0 18 0 0 0 0 0 5 0 0 0 0 0 25 9 0 0 0 0 0 0 0 0 0 0 0 17 0 0 0 0 0 0 0 0 0 0 0 0 1 21 0 0 0 0 0 37 0 0 0 0 0 0 0 0 3 0 0 1 0 0 4 0 77 36 0 0 0 0 0 0 0 0 0 39 0 2 0 0 0 0 0 0
31 0 0 0 0 0 0 0 0 0 4 51 0 0 59 0 0 0 0 65 0 0 0 0 0 48 0 0 0 0 0 0 0 0 0 0 0 0 0 0 0 0 0 16 0 0 0 0 0 31 0 4 0 0 0 0 0 29 26 0 0 0 0 9 0 0 0 0 52 0 23 0 6 0 2 0 0 0 0 0 0 0 0 0 0 0 0 0 0 0 0 0 0 0 0 41 53 0 0 0 0 0 19 0 0 0 0 0 0 0 0 0 0 0 4 0 0 0 0 0 0 0 0 0 0 0 0 0 0 0 0 0 0 31 0 33 0 0 0 32 0 0 0 0 0 5 20 0 0 0
